40 390 
1 2 1
1 7 1
1 10 1
1 12 1
1 13 1
1 15 1
1 16 1
1 17 1
1 18 1
1 20 1
1 22 1
1 23 1
1 26 1
1 28 1
1 30 1
1 35 1
1 40 1
2 4 1
2 5 1
2 7 1
2 8 1
2 10 1
2 12 1
2 18 1
2 21 1
2 23 1
2 27 1
2 34 1
2 37 1
2 38 1
2 39 1
3 4 1
3 5 1
3 6 1
3 8 1
3 10 1
3 12 1
3 13 1
3 15 1
3 20 1
3 23 1
3 24 1
3 26 1
3 27 1
3 28 1
3 30 1
3 31 1
3 33 1
3 36 1
3 37 1
3 40 1
4 5 1
4 7 1
4 9 1
4 10 1
4 11 1
4 12 1
4 18 1
4 19 1
4 21 1
4 23 1
4 26 1
4 27 1
4 29 1
4 30 1
4 34 1
4 35 1
4 36 1
4 37 1
4 38 1
4 39 1
4 40 1
5 8 1
5 11 1
5 13 1
5 15 1
5 17 1
5 21 1
5 23 1
5 26 1
5 27 1
5 29 1
5 31 1
5 32 1
5 33 1
5 34 1
5 35 1
6 8 1
6 12 1
6 13 1
6 14 1
6 17 1
6 18 1
6 22 1
6 23 1
6 24 1
6 27 1
6 29 1
6 34 1
6 35 1
6 36 1
6 37 1
6 38 1
6 40 1
7 8 1
7 9 1
7 11 1
7 13 1
7 14 1
7 18 1
7 21 1
7 22 1
7 25 1
7 26 1
7 28 1
7 29 1
7 32 1
7 33 1
7 35 1
7 36 1
7 37 1
7 39 1
8 9 1
8 12 1
8 13 1
8 15 1
8 17 1
8 18 1
8 20 1
8 21 1
8 25 1
8 26 1
8 27 1
8 28 1
8 31 1
8 33 1
8 36 1
8 37 1
8 38 1
8 39 1
8 40 1
9 11 1
9 13 1
9 17 1
9 18 1
9 19 1
9 23 1
9 24 1
9 25 1
9 26 1
9 29 1
9 30 1
9 31 1
9 32 1
9 33 1
9 34 1
9 36 1
9 40 1
10 11 1
10 12 1
10 14 1
10 16 1
10 17 1
10 18 1
10 21 1
10 23 1
10 24 1
10 26 1
10 28 1
10 30 1
10 31 1
10 32 1
10 35 1
10 36 1
10 38 1
10 39 1
10 40 1
11 13 1
11 14 1
11 18 1
11 20 1
11 21 1
11 23 1
11 26 1
11 30 1
11 31 1
11 33 1
11 34 1
11 35 1
11 36 1
11 37 1
11 40 1
12 16 1
12 24 1
12 25 1
12 26 1
12 27 1
12 30 1
12 34 1
12 35 1
12 36 1
12 38 1
12 40 1
13 14 1
13 16 1
13 17 1
13 19 1
13 20 1
13 22 1
13 23 1
13 25 1
13 26 1
13 29 1
13 30 1
13 31 1
13 32 1
13 34 1
13 36 1
13 38 1
13 39 1
13 40 1
14 16 1
14 18 1
14 19 1
14 21 1
14 22 1
14 26 1
14 27 1
14 33 1
14 38 1
15 16 1
15 17 1
15 18 1
15 19 1
15 21 1
15 22 1
15 24 1
15 25 1
15 26 1
15 27 1
15 32 1
15 33 1
15 36 1
15 37 1
15 38 1
15 39 1
16 17 1
16 18 1
16 23 1
16 26 1
16 29 1
16 31 1
16 38 1
16 39 1
16 40 1
17 18 1
17 22 1
17 23 1
17 24 1
17 25 1
17 29 1
17 31 1
17 32 1
17 34 1
17 36 1
18 22 1
18 23 1
18 24 1
18 27 1
18 28 1
18 29 1
18 32 1
18 34 1
18 36 1
18 37 1
19 20 1
19 21 1
19 24 1
19 26 1
19 27 1
19 30 1
19 37 1
19 38 1
19 40 1
20 25 1
20 26 1
20 27 1
20 29 1
20 30 1
20 31 1
20 34 1
20 35 1
20 37 1
21 25 1
21 26 1
21 34 1
21 35 1
21 38 1
22 24 1
22 25 1
22 26 1
22 27 1
22 28 1
22 29 1
22 33 1
22 34 1
22 35 1
22 37 1
22 39 1
22 40 1
23 24 1
23 25 1
23 26 1
23 27 1
23 30 1
23 33 1
23 34 1
23 35 1
23 38 1
23 39 1
24 25 1
24 27 1
24 29 1
24 30 1
24 32 1
24 33 1
24 34 1
24 35 1
24 36 1
24 38 1
25 26 1
25 29 1
25 31 1
25 33 1
25 36 1
25 37 1
25 39 1
25 40 1
26 27 1
26 28 1
26 31 1
26 33 1
26 36 1
26 37 1
26 40 1
27 28 1
27 29 1
27 30 1
27 31 1
27 33 1
27 34 1
27 36 1
27 37 1
27 38 1
27 39 1
28 29 1
28 32 1
28 36 1
28 37 1
28 38 1
28 39 1
29 31 1
29 33 1
29 34 1
29 39 1
30 33 1
30 39 1
30 40 1
31 34 1
31 35 1
31 37 1
31 38 1
32 34 1
32 35 1
32 36 1
32 37 1
32 40 1
33 34 1
33 35 1
33 36 1
33 37 1
33 39 1
33 40 1
34 36 1
34 39 1
35 38 1
35 40 1
38 39 1
38 40 1
39 40 1
